% File represents an instance of a Composite Structure problem to be solved by a CP framework
% Created on 2025-03-26 10:41:15.625
T = 56;
n = 9;
m = 12;
edges = [(1, 2),
(5, 4),
(8, 7),
(2, 3),
(5, 6),
(8, 9),
(1, 4),
(4, 7),
(2, 5),
(5, 8),
(3, 6),
(6, 9)];
counts = [|6, 22, 6, 22,
|6, 22, 6, 20,
|6, 22, 6, 18,
|6, 18, 6, 20,
|6, 20, 6, 20,
|4, 20, 4, 18,
|4, 18, 4, 20,
|4, 20, 4, 20,
|4, 20, 4, 14|];
